100
32
20
18
26
25
3
19
17
24
4
26
1
8
11
29
8
9
10
20
18
1
1
1
5
1
4
1
4
2
4
1
2
16
1
4
4
2
5
3
2
2
3
2
2
3
2
2
2
17
19
1
2
2
5
2
2
3
2
1
3
1
17
4
1
2
4
2
1
1
2
1
3
1
3
18
18
3
3
3
1
3
2
2
3
17
2
3
2
1
1
2
1
1
2
1
7
2
17
3
2
1